db/data/923122586312088873676128546239797934.z3.out
-------------------
2500.218292720
